NAME : rnd75_20.tsp
TYPE : TSP
DIMENSION : 20
EDGE_WEIGHT_TYPE : EUC_2D
NODE_COORD_SECTION
0 117 404
1 554 622
2 963 98
3 78 492
4 214 221
5 709 899
6 850 690
7 557 935
8 207 543
9 779 191
10 680 159
11 54 881
12 132 477
13 913 492
14 708 184
15 389 632
16 203 998
17 599 784
18 558 313
19 407 901
